\ This file was automatically generated by Zimpl
\ var x1 >= 0;
\ var x2 >= 0;
\ var x3 >= 0;
\ var x4 >= 0;
\ var x5 >= 0;
\ maximize Z:     1*x1 + 1*x2;
\ subto c1:     -1*x1 + 1*x2 + 1*x3 + 0*x4 + 0*x5 == 2;
\ subto c2:     8*x1 - 1*x2 + 0*x3 + 1*x4 + 0*x5 == 40;
\ subto c3:     -1*x1 + 3*x2 + 0*x3 + 0*x4 + 1*x5 == 24;
\Problem name: pp
Maximize
 Z:  + x1 + x2
Subject to
 c1_1:
  + x3 + x2 - x1 = 2
 c2_1:
  + x4 - x2 +8 x1 = 40
 c3_1:
  + x5 +3 x2 - x1 = 24
Bounds
 0 <= x1 <= +inf
 0 <= x2 <= +inf
 0 <= x3 <= +inf
 0 <= x4 <= +inf
 0 <= x5 <= +inf
End
